c --- [ banner ] -------------------------------------------------------------
c 
c CaDiCaL Radically Simplified CDCL SAT Solver
c Copyright (c) 2016-2021 A. Biere, M. Fleury, N. Froleyks
c 
c Version 1.5.2 a5f15211db36c3956764e18194dd5bd63bf3b5e6
c g++ (GCC) 9.3.0 -Wall -Wextra -O3 -DNDEBUG
c Fri Oct 21 01:27:37 EDT 2022 Linux gra-login3 3.10.0-1160.66.1.el7.x86_64 x86_64
c 
c --- [ limit ] --------------------------------------------------------------
c 
c setting conflict limit to 200000 conflicts (due to '200000')
c 
c --- [ parsing input ] ------------------------------------------------------
c 
c reading DIMACS file from '33.cubes4791.adj'
c opening file to read '33.cubes4791.adj'
c found 'p cnf 6160 1595483' header
c parsed 1595483 clauses in 19.50 seconds process time
c closing file '33.cubes4791.adj'
c after reading 1457566832 bytes 1390.0 MB
c 
c --- [ options ] ------------------------------------------------------------
c 
c all options are set to their default value
c 
c --- [ solving ] ------------------------------------------------------------
c 
c time measured in process time since initialization
c 
c  seconds    reductions  redundant   irredundant
c          MB     restarts       trail       variables
c            level   conflicts       glue         remaining
c 
c * 19.50 1380  0 0   0    0    0  0% 0 1595422 2337 38%
c { 20.23 1420  0 0   0    0    0  0% 0 1595422 2337 38%
c i 25.04 1508 220 0  23  121  107 30% 30 1595422 2336 38%
c i 25.11 1509 216 0  23  123  108 30% 29 1595422 2335 38%
c i 25.12 1509 207 0  23  129  113 29% 28 1595422 2334 38%
c i 25.18 1510 200 0  23  136  117 29% 27 1595422 2333 38%
c i 25.20 1510 193 0  23  141  121 29% 26 1595422 2332 38%
c i 25.67 1512 167 0  23  175  149 28% 26 1595422 2331 38%
c i 25.70 1512 165 0  23  178  151 28% 25 1595422 2330 38%
c i 25.93 1512 158 0  23  190  160 28% 24 1595422 2329 38%
c i 25.99 1512 155 0  23  194  163 28% 24 1595422 2328 38%
c i 26.46 1512 128 0  23  250  215 29% 23 1595422 2327 38%
c i 26.46 1512 128 0  23  251  215 29% 23 1595422 2326 38%
c - 30.66 1456 115 1  23  304  260 28% 23 459472 2326 38%
c i 31.34 1456 99 1  23  363  302 28% 21 459472 2325 38%
c i 31.46 1456 97 1  23  374  312 28% 20 459472 2324 38%
c i 31.64 1456 96 1  23  387  322 28% 20 459472 2323 38%
c i 32.23 1404 93 1  30  431  356 28% 23 459472 2322 38%
c i 32.77 1405 87 1  43  490  396 28% 23 459472 2321 38%
c i 33.26 1406 86 1  48  517  418 28% 24 459472 2320 38%
c 
c  seconds    reductions  redundant   irredundant
c          MB     restarts       trail       variables
c            level   conflicts       glue         remaining
c 
c i 34.70 1407 84 1  67  631  509 28% 26 459472 2319 38%
c i 34.73 1407 84 1  67  632  509 28% 26 459472 2318 38%
c i 36.36 1408 79 1  78  757  621 28% 26 459472 2317 38%
c i 36.51 1409 79 1  78  760  623 28% 26 459472 2316 38%
c i 36.86 1409 78 1  78  799  658 28% 26 459472 2315 38%
c i 37.57 1410 76 1  78  867  715 28% 25 459472 2314 38%
c i 37.74 1410 75 1  78  891  732 28% 25 459472 2313 38%
c i 37.74 1410 74 1  78  895  735 28% 25 459472 2312 38%
c i 37.86 1409 74 1  78  910  744 28% 25 459472 2311 38%
c i 37.89 1409 73 1  78  923  754 28% 25 459472 2310 38%
c i 37.91 1410 72 1  78  932  762 28% 24 459472 2309 37%
c i 37.96 1410 72 1  78  933  762 28% 24 459472 2308 37%
c i 38.33 1410 71 1  78  964  782 28% 24 459472 2307 37%
c } 38.86 1376 71 1  78 1002  817 28% 24 459472 2307 37%
c [ 38.86 1376  0 1  78 1002  817  0% 0 459472 2307 37%
c O 38.86 1376  0 1  78 1003  817 12% 0 459472 2307 37%
c i 38.86 1376  0 1  78 1003  817 12% 0 459472 2272 37%
c i 38.86 1376  1 1  78 1004  817 12% 0 459472 2257 37%
c i 38.90 1376  1 1  78 1005  817 14% 0 459472 2249 37%
c i 39.43 1376 11 1  78 1064  835 23% 10 459472 2248 36%
c 
c  seconds    reductions  redundant   irredundant
c          MB     restarts       trail       variables
c            level   conflicts       glue         remaining
c 
c i 39.57 1376 16 1  78 1090  858 25% 14 459472 2247 36%
c i 39.58 1376 16 1  78 1093  860 26% 14 459472 2246 36%
c i 39.78 1376 19 1  78 1206  946 29% 17 459472 2245 36%
c - 40.72 1561 19 2  78 1302  915 30% 17 458028 2245 36%
c i 41.53 1561 24 2  78 1819 1315 31% 21 458028 2244 36%
c i 41.67 1561 23 2  79 2063 1490 31% 20 458028 2243 36%
c i 41.98 1561 24 2  79 2437 1765 31% 21 458028 2242 36%
c - 42.87 1560 24 3  79 2796 1572 31% 21 458019 2242 36%
c ] 43.46 1560 24 3  79 3003 1729 53% 21 458019 2242 36%
c { 43.46 1560 71 3  79 3003 1729 76% 24 458019 2242 36%
c F 43.48 1560 71 3  79 3004 1730 76% 24 458019 2242 36%
c i 43.67 1560 70 3  79 3031 1749 75% 23 458019 2241 36%
c i 43.88 1560 70 3  87 3084 1795 74% 24 458019 2240 36%
c i 43.94 1560 70 3  91 3096 1805 73% 24 458019 2239 36%
c i 44.79 1560 72 3 114 3195 1895 71% 25 458019 2238 36%
c i 44.82 1560 72 3 116 3205 1903 70% 25 458019 2237 36%
c i 45.13 1560 70 3 125 3278 1969 69% 25 458019 2236 36%
c i 45.91 1560 67 3 134 3494 2155 65% 25 458019 2235 36%
c i 46.87 1560 53 3 143 4165 2614 59% 22 458019 2234 36%
c i 47.00 1560 49 3 143 4458 2776 58% 22 458019 2216 36%
c 
c  seconds    reductions  redundant   irredundant
c          MB     restarts       trail       variables
c            level   conflicts       glue         remaining
c 
c i 47.07 1560 49 3 143 4482 2792 58% 22 458019 2215 36%
c i 47.56 1560 49 3 158 4587 2878 57% 22 458019 2213 36%
c i 48.59 1560 49 3 185 4783 3036 56% 22 458019 2212 36%
c - 49.10 1523 49 4 186 4790 2087 56% 22 383403 2212 36%
c d 50.11 1523 48 4 191 5002 2264 55% 22 383387 2204 36%
c 3 50.16 1523 48 4 191 5002 3293 55% 22 383387 2204 36%
c p 55.61 1523 48 4 191 5002 5500 55% 22 383387 2174 35%
c d 56.18 1523 48 4 191 5002 5431 55% 22 383300 2173 35%
c # 58.98 1523 44 4 243 6005 6144 53% 22 383300 2173 35%
c } 60.92 1523 41 4 310 7004 6901 52% 22 383300 2173 35%
c [ 60.92 1523 24 4 310 7004 6901 53% 21 383300 2173 35%
c - 61.35 1377 24 5 311 7168 2944 52% 21 383300 2173 35%
c I 63.02 1377 25 5 312 10007 4668 50% 22 383300 2173 35%
c - 63.40 1377 25 6 312 10018 3053 50% 22 383300 2173 35%
c - 68.11 1377 33 7 315 13343 3959 50% 28 383300 2173 35%
c 3 70.20 1377 35 7 315 15003 6110 50% 29 383300 2173 35%
c 3 70.20 1377 35 7 315 15003 6317 50% 29 383300 2173 35%
c p 73.02 1377 35 7 315 15003 8573 50% 29 383300 2173 35%
c ] 73.18 1377 35 7 315 15004 8574 50% 29 383300 2173 35%
c { 73.18 1377 41 7 315 15004 8574 52% 22 383300 2173 35%
c 
c  seconds    reductions   redundant   irredundant
c          MB     restarts        trail       variables
c            level    conflicts       glue         remaining
c 
c B 73.40 1377 41 7 317 15009 8579 52% 22 383300 2173 35%
c - 77.81 1377 37 8 381 17148 4757 51% 21 383300 2173 35%
c s 83.02 1377 37 8 499 18831 5524 50% 22 379658 2173 35%
c v 89.13 1377 37 8 499 18831 5524 50% 22 379639 2173 35%
c w 89.29 1377 37 8 499 18831 5521 50% 22 379639 2173 35%
c t 89.30 1377 37 8 499 18831 5519 50% 22 379625 2173 35%
c e 90.76 1379 37 8 499 18831 5294 50% 22 377534 933 15%
c s 90.89 1379 37 8 499 18831 5293 50% 22 376949 933 15%
c W 98.84 1379 35 8 617 21011 6973 68% 22 376949 933 15%
c - 99.39 1379 35 9 620 21427 5604 67% 22 376949 933 15%
c - 103.99 1379 30 10 653 26156 5299 68% 20 376949 933 15%
c F 105.89 1379 29 10 654 28012 6375 68% 19 376949 933 15%
c 3 112.24 1379 29 10 849 30004 8318 68% 20 376948 933 15%
c p 114.03 1379 29 10 849 30004 9822 68% 20 376948 933 15%
c } 121.42 1379 30 10 1037 31005 10661 68% 20 376948 933 15%
c [ 121.42 1379 35 10 1037 31005 10661 120% 29 376948 933 15%
c - 122.02 1379 34 11 1037 31358 6608 117% 29 376948 933 15%
c B 124.94 1379 32 11 1040 36013 9529 100% 27 376948 933 15%
c - 125.83 1379 33 12 1040 37032 6979 98% 28 376948 933 15%
c - 130.44 1379 37 13 1044 43181 7929 89% 31 376948 933 15%
c 
c  seconds     reductions     redundant   irredundant
c           MB      restarts         trail       variables
c             level      conflicts       glue        remaining
c 
c W 133.92 1379 37 13 1044 45014 9243 87% 31 376948 933 15%
c - 138.24 1379 36 14 1045 49803 8462 84% 31 376948 933 15%
c p 142.04 1379 37 14 1045 50007 10954 84% 31 376948 932 15%
c s 146.24 1379 36 14 1045 53466 13211 82% 31 376196 932 15%
c v 151.96 1379 36 14 1045 53466 13211 82% 31 376182 932 15%
c e 153.51 1379 36 14 1045 53466 13208 82% 31 376176 929 15%
c s 153.69 1379 36 14 1045 53466 13208 82% 31 375210 929 15%
c O 156.91 1380 36 14 1046 55016 14164 82% 31 375210 929 15%
c - 158.72 1380 35 15 1048 56897 8715 81% 30 375210 929 15%
c ] 161.83 1380 33 15 1052 63005 12213 79% 29 375210 929 15%
c { 161.83 1380 30 15 1052 63005 12213 68% 20 375210 929 15%
c - 162.94 1380 30 16 1070 64454 8386 68% 20 375210 929 15%
c B 164.21 1380 29 16 1085 66017 9400 68% 20 375210 929 15%
c - 177.95 1379 28 17 1452 72482 9652 68% 20 375210 929 15%
c p 183.76 1380 28 17 1530 75007 13996 68% 20 375210 929 15%
c W 186.82 1380 27 17 1575 78018 16023 68% 20 375210 929 15%
c - 188.81 1380 27 18 1597 80985 11266 69% 19 375210 929 15%
c - 193.67 1379 24 19 1639 89958 11137 69% 18 375210 929 15%
c } 193.76 1379 24 19 1639 90117 11233 69% 18 375210 929 15%
c 1 193.76 1379 24 19 1639 90117 11233 69% 18 375210 929 15%
c 
c --- [ writing output ] -----------------------------------------------------
c 
c writing simplified CNF to DIMACS file 'simp/33.cubes4791.adj.simp1'
c 
c  seconds     reductions      redundant   irredundant
c           MB      restarts          trail       variables
c             level      conflicts        glue        remaining
c 
c * 193.76 1379 24 19 1639 90117 11233 69% 18 375210 929 15%
c opening file to write 'simp/33.cubes4791.adj.simp1'
c writing 'p cnf 6160 375210' header
c closing file 'simp/33.cubes4791.adj.simp1'
c after writing 160102875 bytes 152.7 MB
c wrote 375210 clauses in 1.14 seconds process time
c 
c --- [ writing extension ] --------------------------------------------------
c 
c writing extension stack to 'simp/33.cubes4791.adj.ext1'
c opening file to write 'simp/33.cubes4791.adj.ext1'
c closing file 'simp/33.cubes4791.adj.ext1'
c after writing 82359 bytes 0.1 MB
c wrote 3709 witnesses in 0.00 seconds process time
c 
c --- [ result ] -------------------------------------------------------------
c 
s SATISFIABLE
c 
c --- [ run-time profiling ] -------------------------------------------------
c 
c process time taken by individual solving procedures
c (percentage relative to process time for solving)
c 
c       138.81   79.66% search
c        95.41   54.75% unstable
c        40.68   23.34% stable
c        35.45   20.34% simplify
c        19.50   11.19% parse
c        15.67    8.99% probe
c        12.10    6.95% vivify
c         5.27    3.02% elim
c         2.00    1.15% walk
c         0.72    0.42% lucky
c         0.62    0.35% subsume
c         0.25    0.14% ternary
c   =================================
c       174.25   89.41% solve
c 
c last line shows process time for solving
c (percentage relative to total process time)
c 
c --- [ statistics ] ---------------------------------------------------------
c 
c chronological:             14597        16.20 %  of conflicts
c conflicts:                 90117       517.16    per second
c decisions:                178089      1022.02    per second
c eliminated:                 1243        20.18 %  of all variables
c fixed:                       835        13.56 %  of all variables
c learned:                   88165        97.83 %  per conflict
c learned_lits:           15810003       100.00 %  learned literals
c minimized:                     0         0.00 %  learned literals
c shrunken:               10279296        65.02 %  learned literals
c minishrunken:            1056356         6.68 %  learned literals
c propagations:            7346900         0.04 M  per second
c reduced:                   49973        55.45 %  per conflict
c rephased:                     12      7509.75    interval
c restarts:                   1639        54.98    interval
c stabilizing:                   3        46.61 %  of conflicts
c substituted:                   9         0.15 %  of all variables
c subsumed:                  32844         0.93 %  of all clauses
c strengthened:               8641         0.25 %  of all clauses
c ternary:                    3952         0.72 %  of resolved
c vivified:                     49         0.00 %  of all clauses
c walked:                        3     30039.00    interval
c weakened:                   2874         3.04    average size
c 
c seconds are measured in process time for solving
c 
c --- [ resources ] ----------------------------------------------------------
c 
c total process time since initialization:       194.90    seconds
c total real time since initialization:          195.93    seconds
c maximum resident set size of process:         1744.93    MB
c 
c --- [ shutting down ] ------------------------------------------------------
c 
c exit 10
WARNING! DIMACS header mismatch: wrong number of variables.
============================[ Problem Statistics ]=============================
|                                                                             |
|  Number of variables:          6111                                         |
|  Number of clauses:          375210                                         |
|  Parse time:                   2.15 s                                       |
|  Simplification time:          0.07 s                                       |
|                                                                             |
============================[ Search Statistics ]====================================================
| Conflicts |          ORIGINAL         |          LEARNT          | Num Sols |      SUBGRAPHS      |
|           |    Vars  Clauses Literals |    Limit  Clauses Lit/Cl |          | Canonical Noncanon. |
=====================================================================================================
|       100 |    6018   375210 35147376 |     2000      100    142 |        0 |        15         0 |
|       261 |    6018   375221 35147592 |     2000      261     99 |        0 |        31        11 |
|       540 |    6018   375275 35148698 |     2000      540     86 |        0 |        60        65 |
|       949 |    6018   375347 35149775 |     2000      949     85 |        0 |        93       137 |
|      1586 |    6018   375478 35152182 |     2000     1586     88 |        0 |       137       268 |
|      2392 |    6018   375525 35153138 |     3603     1395     63 |        0 |       166       315 |
|      3583 |    6018   375577 35154240 |     3603     2586     84 |        0 |       197       367 |
|      5378 |    6018   375664 35156087 |     5004     2582     70 |        0 |       266       454 |
|      8173 |    6018   375897 35160909 |     6306     2879     56 |        0 |       341       687 |
|     12148 |    6018   376028 35163540 |     7551     3699     53 |        0 |       398       818 |
|     18170 |    6018   376284 35167743 |     8776     5946     71 |        0 |       519      1074 |
|     27200 |    6018   376665 35174721 |    11202     5602     56 |        0 |       692      1455 |
|     40887 |    6018   377378 35187978 |    13611     7498     53 |        0 |       972      2168 |
|     62371 |    6018   379401 35220977 |    16004    14775     66 |        0 |      1461      4191 |
|     92377 |    6018   380215 35235719 |    19613    18990     66 |        0 |      1781      5005 |
|    137311 |    6018   381360 35258932 |    24416    21127     63 |        0 |      2258      6150 |
|    205422 |    6018   383787 35299463 |    30417    22239     61 |        0 |      3087      8577 |
|    305510 |    6018   385349 35325676 |    37615    22125     48 |        0 |      3641     10139 |
|    455058 |    6018   387108 35358229 |    46009    27467     50 |        0 |      4468     11898 |
|    681730 |    6018   392097 35435738 |    55615    53345     75 |        0 |      6025     16887 |
|   1018134 |    6018   395976 35496385 |    68812    50946     62 |        0 |      7294     20766 |
|   1527739 |    6007   389895 35403470 |    84397    66536     75 |        0 |     10515     31583 |
|   2283275 |    6007   397249 35553074 |   103619    74894     68 |        0 |     12671     38937 |
|   3416224 |    6007   407924 35767916 |   126426   121050     73 |        0 |     15436     49612 |
|   5114561 |    6007   422850 36106916 |   155223   136984     70 |        0 |     19895     64538 |
|   7664214 |    5988   438257 36385792 |   191225    97639     47 |        0 |     25988     89075 |
=====================================================================================================
Number of solutions   : 0
Canonical subgraphs   : 30168          (13 /sec)
          order  3    : 1              (142857 /sec)
          order  4    : 1              (500000 /sec)
          order  5    : 1              (166667 /sec)
          order  6    : 1              (41667 /sec)
          order  7    : 1              (5747 /sec)
          order  8    : 2              (1104 /sec)
          order  9    : 7              (354 /sec)
          order 10    : 32             (114 /sec)
          order 11    : 184            (41 /sec)
          order 12    : 954            (14 /sec)
          order 13    : 4573           (10 /sec)
          order 14    : 13073          (13 /sec)
          order 15    : 9847           (14 /sec)
          order 16    : 698            (15 /sec)
          order 17    : 469            (13 /sec)
          order 18    : 186            (10 /sec)
          order 19    : 53             (12 /sec)
          order 20    : 43             (11 /sec)
          order 21    : 42             (11 /sec)
          order 22    : 0              (-nan /sec)
Noncanonical subgraphs: 103846         (671 /sec)
          order  3    : 0              (-nan /sec)
          order  4    : 0              (-nan /sec)
          order  5    : 0              (-nan /sec)
          order  6    : 0              (-nan /sec)
          order  7    : 0              (-nan /sec)
          order  8    : 0              (-nan /sec)
          order  9    : 0              (-nan /sec)
          order 10    : 0              (-nan /sec)
          order 11    : 0              (-nan /sec)
          order 12    : 0              (-nan /sec)
          order 13    : 20285          (3235 /sec)
          order 14    : 57365          (1132 /sec)
          order 15    : 18247          (780 /sec)
          order 16    : 7692           (113 /sec)
          order 17    : 153            (110 /sec)
          order 18    : 62             (49 /sec)
          order 19    : 0              (-nan /sec)
          order 20    : 0              (-nan /sec)
          order 21    : 0              (-nan /sec)
Canonicity checking   : 2306.41 s
Noncanonicity checking: 154.866 s
Total canonicity time : 2461.28 s
database reductions   : 180
restarts              : 16381
conflicts             : 10084838       (1242 /sec)
decisions             : 12186555       (0.00 % random) (1501 /sec)
propagations          : 497833979      (61333 /sec)
conflict literals     : 1004459033     (55.94 % deleted)
actual reward         : 0.247774
Memory used           : 637.00 MB
CPU time              : 8116.85 s

UNSATISFIABLE
